problems/Promedus_24/Promedus_24.td
c read Graph
c width = 134
c time = 3 ms
c width = 5
c time = 36 ms
c width = 4
c time = 59 ms
c width = 4
c time = 299912 ms
s td 148 5 200
b 1 26 155
b 2 20 155 156
b 3 59 156 157
b 4 84 157 158
b 5 21 158 159
b 6 52 159 160
b 7 29 160 161
b 8 98 161 162
b 9 55 162 163
b 10 51 163 164
b 11 70 164 165
b 12 86 165 166
b 13 76 93 198
b 14 44 197 198
b 15 17 196 197
b 16 100 195 196
b 17 87 194 195
b 18 45 101
b 19 89 101 102
b 20 56 102 103
b 21 30 103 104
b 22 4 182 183
b 23 75 182 183
b 24 5 190 191
b 25 75 190 191
b 26 24 191 192
b 27 75 191 192
b 28 61 192 193
b 29 75 192 193
b 30 75 193 194
b 31 74 189 190
b 32 75 189 190
b 33 75 188 189
b 34 94 188 189
b 35 25 187 188
b 36 75 187 188
b 37 58 186 187
b 38 75 186 187
b 39 75 185 186
b 40 96 185 186
b 41 39 184 185
b 42 75 184 185
b 43 75 183 184
b 44 82 183 184
b 45 53 181 182
b 46 75 181 182
b 47 68 180 181
b 48 75 180 181
b 49 50 179 180
b 50 75 179 180
b 51 75 178 179
b 52 90 178 179
b 53 8 115 116
b 54 110 115 116
b 55 12 120 121
b 56 110 120 121
b 57 33 123 172 173
b 58 97 109 110 171
b 59 109 110 171 173
b 60 110 122 171 173
b 61 36 122 123 171 172
b 62 122 123 171 172 173
b 63 54 121 122
b 64 110 121 122
b 65 27 119 120
b 66 110 119 120
b 67 69 118 119
b 68 110 118 119
b 69 63 117 118
b 70 110 117 118
b 71 18 116 117
b 72 110 116 117
b 73 14 114 115
b 74 110 114 115
b 75 38 113 114
b 76 110 113 114
b 77 81 112 113
b 78 110 112 113
b 79 34 111 112
b 80 110 111 112
b 81 37 110 111
b 82 108 109 173
b 83 32 107 177 178
b 84 75 107 108 178
b 85 107 108 177 178
b 86 49 176 177
b 87 108 176 177
b 88 78 175 176
b 89 108 175 176
b 90 71 174 175
b 91 108 174 175
b 92 85 173 174
b 93 108 173 174
b 94 46 108 109
b 95 10 170 171
b 96 97 170 171
b 97 11 169 170
b 98 97 169 170
b 99 42 168 169
b 100 97 168 169
b 101 97 167 168
b 102 23 123 124
b 103 33 123 124
b 104 33 99 124
b 105 32 106 107
b 106 80 106 107
b 107 32 105 106
b 108 95 105 106
b 109 32 104 105
b 110 1 166 167
b 111 64 199
b 112 7 66 154
b 113 92 153 154
b 114 9 152 153
b 115 40 151 152
b 116 67 125
b 117 62 125 126
b 118 15 126 127
b 119 48 127 128
b 120 6 128 129
b 121 57 129 130
b 122 60 130 131
b 123 43 131 132
b 124 16 132 133
b 125 35 133 134
b 126 65 134 135
b 127 91 135 136
b 128 19 136 137
b 129 83 137 138
b 130 28 138 139
b 131 3 139 140
b 132 77 140 141
b 133 88 141 142
b 134 72 142 143
b 135 47 143 144
b 136 13 144 145
b 137 2 146 147
b 138 22 146 147
b 139 22 147 148
b 140 31 147 148
b 141 22 79 148 200
b 142 79 148 149 200
b 143 41 149 200
b 144 41 199 200
b 145 41 149 150
b 146 73 149 150
b 147 41 150 151
b 148 22 145 146
1 2
1 111
2 3
3 4
4 5
5 6
6 7
7 8
8 9
9 10
10 11
11 12
12 110
13 14
14 15
15 16
16 17
17 30
18 19
19 20
20 21
21 109
22 23
23 46
23 43
24 25
25 32
25 27
26 27
27 29
28 29
29 30
31 32
32 33
33 36
33 34
35 36
36 38
37 38
38 39
39 42
39 40
41 42
42 43
43 44
45 46
46 48
47 48
48 50
49 50
50 51
51 84
51 52
53 54
54 74
54 72
55 56
56 66
56 64
57 103
57 62
58 96
58 59
59 82
59 60
60 64
60 62
61 62
63 64
65 66
66 68
67 68
68 70
69 70
70 72
71 72
73 74
74 76
75 76
76 78
77 78
78 80
79 80
80 81
82 94
82 93
83 105
83 85
84 85
85 87
86 87
87 89
88 89
89 91
90 91
91 93
92 93
95 96
96 98
97 98
98 100
99 100
100 101
101 110
102 103
103 104
105 107
105 106
107 109
107 108
111 144
112 113
113 114
114 115
115 147
116 117
117 118
118 119
119 120
120 121
121 122
122 123
123 124
124 125
125 126
126 127
127 128
128 129
129 130
130 131
131 132
132 133
133 134
134 135
135 136
136 148
137 138
138 148
138 139
139 141
139 140
141 142
142 143
143 145
143 144
145 147
145 146
