problems/Promedus_24/Promedus_24.uai
MARKOV
200
2 2 2 2 2 2 2 2 2 2 2 2 2 2 2 2 2 2 2 2 2 2 2 2 2 2 2 2 2 2 2 2 2 2 2 2 2 2 2 2 2 2 2 2 2 2 2 2 2 2 2 2 2 2 2 2 2 2 2 2 2 2 2 2 2 2 2 2 2 2 2 2 2 2 2 2 2 2 2 2 2 2 2 2 2 2 2 2 2 2 2 2 2 2 2 2 2 2 2 2 2 2 2 2 2 2 2 2 2 2 2 2 2 2 2 2 2 2 2 2 2 2 2 2 2 2 2 2 2 2 2 2 2 2 2 2 2 2 2 2 2 2 2 2 2 2 2 2 2 2 2 2 2 2 2 2 2 2 2 2 2 2 2 2 2 2 2 2 2 2 2 2 2 2 2 2 2 2 2 2 2 2 2 2 2 2 2 2 2 2 2 2 2 2 2 2 2 2 2 2 
200
3 199 21 78 
3 198 40 199 
2 63 198 
3 197 92 75 
3 196 43 197 
3 195 16 196 
3 194 99 195 
3 193 86 194 
3 192 74 193 
3 191 60 192 
3 190 23 191 
3 189 4 190 
3 188 73 189 
3 187 93 188 
3 186 24 187 
3 185 57 186 
3 184 95 185 
3 183 38 184 
3 182 81 183 
3 181 3 182 
3 180 52 181 
3 179 67 180 
3 178 49 179 
3 177 89 178 
3 176 31 177 
3 175 48 176 
3 174 77 175 
3 173 70 174 
3 172 84 173 
3 171 32 172 
3 170 35 171 
3 169 9 170 
3 168 10 169 
3 167 41 168 
3 166 96 167 
3 165 0 166 
3 164 85 165 
3 163 69 164 
3 162 50 163 
3 161 54 162 
3 160 97 161 
3 159 28 160 
3 158 51 159 
3 157 20 158 
3 156 83 157 
3 155 58 156 
3 154 19 155 
2 25 154 
3 153 6 65 
3 152 91 153 
3 151 8 152 
3 150 39 151 
3 149 40 150 
3 148 72 149 
3 147 78 148 
3 146 30 147 
3 145 1 146 
3 144 21 145 
3 143 12 144 
3 142 46 143 
3 141 71 142 
3 140 87 141 
3 139 76 140 
3 138 2 139 
3 137 27 138 
3 136 82 137 
3 135 18 136 
3 134 90 135 
3 133 64 134 
3 132 34 133 
3 131 15 132 
3 130 42 131 
3 129 59 130 
3 128 56 129 
3 127 5 128 
3 126 47 127 
3 125 14 126 
3 124 61 125 
2 66 124 
3 123 32 98 
3 122 22 123 
3 121 35 122 
3 120 53 121 
3 119 11 120 
3 118 26 119 
3 117 68 118 
3 116 62 117 
3 115 17 116 
3 114 7 115 
3 113 13 114 
3 112 37 113 
3 111 80 112 
3 110 33 111 
3 109 36 110 
3 108 96 109 
3 107 45 108 
3 106 74 107 
3 105 79 106 
3 104 94 105 
3 103 31 104 
3 102 29 103 
3 101 55 102 
3 100 88 101 
2 44 100 
1 75 
1 92 
1 39 
1 22 
1 43 
1 16 
1 30 
1 99 
1 21 
1 71 
1 86 
1 17 
1 7 
1 27 
1 37 
1 33 
1 74 
1 60 
1 23 
1 4 
1 55 
1 73 
1 88 
1 93 
1 24 
1 57 
1 40 
1 95 
1 11 
1 38 
1 1 
1 81 
1 46 
1 52 
1 3 
1 62 
1 68 
1 2 
1 67 
1 18 
1 90 
1 49 
1 56 
1 5 
1 47 
1 94 
1 89 
1 31 
1 48 
1 77 
1 70 
1 84 
1 91 
1 8 
1 98 
1 32 
1 35 
1 9 
1 10 
1 87 
1 76 
1 13 
1 82 
1 15 
1 34 
1 41 
1 59 
1 36 
1 96 
1 79 
1 0 
1 85 
1 69 
1 50 
1 54 
1 61 
1 65 
1 6 
1 97 
1 28 
1 51 
1 20 
1 72 
1 78 
1 53 
1 12 
1 26 
1 64 
1 80 
1 42 
1 45 
1 83 
1 14 
1 58 
1 29 
1 19 

8
1.00000000000000 0.10000000000000 0.50000000000000 0.05000000000000 0.00000000000000 0.90000000000000 0.50000000000000 0.95000000000000 
8
1.00000000000000 0.00000000000000 0.50000000000000 0.00000000000000 0.00000000000000 1.00000000000000 0.50000000000000 1.00000000000000 
4
0.97000000000000 0.00000000000000 0.03000000000000 1.00000000000000 
8
1.00000000000000 0.90000000000000 0.90000000000000 0.81000000000000 0.00000000000000 0.10000000000000 0.10000000000000 0.19000000000000 
8
1.00000000000000 0.00000000000000 0.30000000000000 0.00000000000000 0.00000000000000 1.00000000000000 0.70000000000000 1.00000000000000 
8
1.00000000000000 0.00000000000000 0.90000000000000 0.00000000000000 0.00000000000000 1.00000000000000 0.10000000000000 1.00000000000000 
8
1.00000000000000 0.00000000000000 0.30000000000000 0.00000000000000 0.00000000000000 1.00000000000000 0.70000000000000 1.00000000000000 
8
1.00000000000000 0.00000000000000 0.30000000000000 0.00000000000000 0.00000000000000 1.00000000000000 0.70000000000000 1.00000000000000 
8
1.00000000000000 0.00000000000000 0.50000000000000 0.00000000000000 0.00000000000000 1.00000000000000 0.50000000000000 1.00000000000000 
8
1.00000000000000 0.00000000000000 0.30000000000000 0.00000000000000 0.00000000000000 1.00000000000000 0.70000000000000 1.00000000000000 
8
1.00000000000000 0.00000000000000 0.50000000000000 0.00000000000000 0.00000000000000 1.00000000000000 0.50000000000000 1.00000000000000 
8
1.00000000000000 0.00000000000000 0.90000000000000 0.00000000000000 0.00000000000000 1.00000000000000 0.10000000000000 1.00000000000000 
8
1.00000000000000 0.00000000000000 0.30000000000000 0.00000000000000 0.00000000000000 1.00000000000000 0.70000000000000 1.00000000000000 
8
1.00000000000000 0.00000000000000 0.50000000000000 0.00000000000000 0.00000000000000 1.00000000000000 0.50000000000000 1.00000000000000 
8
1.00000000000000 0.00000000000000 0.90000000000000 0.00000000000000 0.00000000000000 1.00000000000000 0.10000000000000 1.00000000000000 
8
1.00000000000000 0.00000000000000 0.50000000000000 0.00000000000000 0.00000000000000 1.00000000000000 0.50000000000000 1.00000000000000 
8
1.00000000000000 0.00000000000000 0.70000000000000 0.00000000000000 0.00000000000000 1.00000000000000 0.30000000000000 1.00000000000000 
8
1.00000000000000 0.00000000000000 0.90000000000000 0.00000000000000 0.00000000000000 1.00000000000000 0.10000000000000 1.00000000000000 
8
1.00000000000000 0.00000000000000 0.90000000000000 0.00000000000000 0.00000000000000 1.00000000000000 0.10000000000000 1.00000000000000 
8
1.00000000000000 0.00000000000000 0.40000000000000 0.00000000000000 0.00000000000000 1.00000000000000 0.60000000000000 1.00000000000000 
8
1.00000000000000 0.00000000000000 0.90000000000000 0.00000000000000 0.00000000000000 1.00000000000000 0.10000000000000 1.00000000000000 
8
1.00000000000000 0.00000000000000 0.90000000000000 0.00000000000000 0.00000000000000 1.00000000000000 0.10000000000000 1.00000000000000 
8
1.00000000000000 0.00000000000000 0.75000000000000 0.00000000000000 0.00000000000000 1.00000000000000 0.25000000000000 1.00000000000000 
8
1.00000000000000 0.00000000000000 0.30000000000000 0.00000000000000 0.00000000000000 1.00000000000000 0.70000000000000 1.00000000000000 
8
1.00000000000000 0.00000000000000 0.90000000000000 0.00000000000000 0.00000000000000 1.00000000000000 0.10000000000000 1.00000000000000 
8
1.00000000000000 0.00000000000000 0.50000000000000 0.00000000000000 0.00000000000000 1.00000000000000 0.50000000000000 1.00000000000000 
8
1.00000000000000 0.00000000000000 0.90000000000000 0.00000000000000 0.00000000000000 1.00000000000000 0.10000000000000 1.00000000000000 
8
1.00000000000000 0.00000000000000 0.30000000000000 0.00000000000000 0.00000000000000 1.00000000000000 0.70000000000000 1.00000000000000 
8
1.00000000000000 0.00000000000000 0.50000000000000 0.00000000000000 0.00000000000000 1.00000000000000 0.50000000000000 1.00000000000000 
8
1.00000000000000 0.00000000000000 0.90000000000000 0.00000000000000 0.00000000000000 1.00000000000000 0.10000000000000 1.00000000000000 
8
1.00000000000000 0.00000000000000 0.90000000000000 0.00000000000000 0.00000000000000 1.00000000000000 0.10000000000000 1.00000000000000 
8
1.00000000000000 0.00000000000000 0.90000000000000 0.00000000000000 0.00000000000000 1.00000000000000 0.10000000000000 1.00000000000000 
8
1.00000000000000 0.00000000000000 0.90000000000000 0.00000000000000 0.00000000000000 1.00000000000000 0.10000000000000 1.00000000000000 
8
1.00000000000000 0.00000000000000 0.30000000000000 0.00000000000000 0.00000000000000 1.00000000000000 0.70000000000000 1.00000000000000 
8
1.00000000000000 0.00000000000000 0.90000000000000 0.00000000000000 0.00000000000000 1.00000000000000 0.10000000000000 1.00000000000000 
8
1.00000000000000 0.00000000000000 0.30000000000000 0.00000000000000 0.00000000000000 1.00000000000000 0.70000000000000 1.00000000000000 
8
1.00000000000000 0.00000000000000 0.50000000000000 0.00000000000000 0.00000000000000 1.00000000000000 0.50000000000000 1.00000000000000 
8
1.00000000000000 0.00000000000000 0.10000000000000 0.00000000000000 0.00000000000000 1.00000000000000 0.90000000000000 1.00000000000000 
8
1.00000000000000 0.00000000000000 0.90000000000000 0.00000000000000 0.00000000000000 1.00000000000000 0.10000000000000 1.00000000000000 
8
1.00000000000000 0.00000000000000 0.89000000000000 0.00000000000000 0.00000000000000 1.00000000000000 0.11000000000000 1.00000000000000 
8
1.00000000000000 0.00000000000000 0.90000000000000 0.00000000000000 0.00000000000000 1.00000000000000 0.10000000000000 1.00000000000000 
8
1.00000000000000 0.00000000000000 0.89000000000000 0.00000000000000 0.00000000000000 1.00000000000000 0.11000000000000 1.00000000000000 
8
1.00000000000000 0.00000000000000 0.50000000000000 0.00000000000000 0.00000000000000 1.00000000000000 0.50000000000000 1.00000000000000 
8
1.00000000000000 0.00000000000000 0.09000000000000 0.00000000000000 0.00000000000000 1.00000000000000 0.91000000000000 1.00000000000000 
8
1.00000000000000 0.00000000000000 0.30000000000000 0.00000000000000 0.00000000000000 1.00000000000000 0.70000000000000 1.00000000000000 
8
1.00000000000000 0.00000000000000 0.40000000000000 0.00000000000000 0.00000000000000 1.00000000000000 0.60000000000000 1.00000000000000 
8
1.00000000000000 0.00000000000000 0.90000000000000 0.00000000000000 0.00000000000000 1.00000000000000 0.10000000000000 1.00000000000000 
4
0.97000000000000 0.00000000000000 0.03000000000000 1.00000000000000 
8
1.00000000000000 0.89000000000000 0.50000000000000 0.44500000000000 0.00000000000000 0.11000000000000 0.50000000000000 0.55500000000000 
8
1.00000000000000 0.00000000000000 0.05000000000000 0.00000000000000 0.00000000000000 1.00000000000000 0.95000000000000 1.00000000000000 
8
1.00000000000000 0.00000000000000 0.50000000000000 0.00000000000000 0.00000000000000 1.00000000000000 0.50000000000000 1.00000000000000 
8
1.00000000000000 0.00000000000000 0.50000000000000 0.00000000000000 0.00000000000000 1.00000000000000 0.50000000000000 1.00000000000000 
8
1.00000000000000 0.00000000000000 0.40000000000000 0.00000000000000 0.00000000000000 1.00000000000000 0.60000000000000 1.00000000000000 
8
1.00000000000000 0.00000000000000 0.89000000000000 0.00000000000000 0.00000000000000 1.00000000000000 0.11000000000000 1.00000000000000 
8
1.00000000000000 0.00000000000000 0.50000000000000 0.00000000000000 0.00000000000000 1.00000000000000 0.50000000000000 1.00000000000000 
8
1.00000000000000 0.00000000000000 0.89000000000000 0.00000000000000 0.00000000000000 1.00000000000000 0.11000000000000 1.00000000000000 
8
1.00000000000000 0.00000000000000 0.50000000000000 0.00000000000000 0.00000000000000 1.00000000000000 0.50000000000000 1.00000000000000 
8
1.00000000000000 0.00000000000000 0.50000000000000 0.00000000000000 0.00000000000000 1.00000000000000 0.50000000000000 1.00000000000000 
8
1.00000000000000 0.00000000000000 0.50000000000000 0.00000000000000 0.00000000000000 1.00000000000000 0.50000000000000 1.00000000000000 
8
1.00000000000000 0.00000000000000 0.90000000000000 0.00000000000000 0.00000000000000 1.00000000000000 0.10000000000000 1.00000000000000 
8
1.00000000000000 0.00000000000000 0.50000000000000 0.00000000000000 0.00000000000000 1.00000000000000 0.50000000000000 1.00000000000000 
8
1.00000000000000 0.00000000000000 0.20000000000000 0.00000000000000 0.00000000000000 1.00000000000000 0.80000000000000 1.00000000000000 
8
1.00000000000000 0.00000000000000 0.60000000000000 0.00000000000000 0.00000000000000 1.00000000000000 0.40000000000000 1.00000000000000 
8
1.00000000000000 0.00000000000000 0.50000000000000 0.00000000000000 0.00000000000000 1.00000000000000 0.50000000000000 1.00000000000000 
8
1.00000000000000 0.00000000000000 0.50000000000000 0.00000000000000 0.00000000000000 1.00000000000000 0.50000000000000 1.00000000000000 
8
1.00000000000000 0.00000000000000 0.90000000000000 0.00000000000000 0.00000000000000 1.00000000000000 0.10000000000000 1.00000000000000 
8
1.00000000000000 0.00000000000000 0.89000000000000 0.00000000000000 0.00000000000000 1.00000000000000 0.11000000000000 1.00000000000000 
8
1.00000000000000 0.00000000000000 0.89000000000000 0.00000000000000 0.00000000000000 1.00000000000000 0.11000000000000 1.00000000000000 
8
1.00000000000000 0.00000000000000 0.50000000000000 0.00000000000000 0.00000000000000 1.00000000000000 0.50000000000000 1.00000000000000 
8
1.00000000000000 0.00000000000000 0.00000000000000 0.00000000000000 0.00000000000000 1.00000000000000 1.00000000000000 1.00000000000000 
8
1.00000000000000 0.00000000000000 0.10000000000000 0.00000000000000 0.00000000000000 1.00000000000000 0.90000000000000 1.00000000000000 
8
1.00000000000000 0.00000000000000 0.70000000000000 0.00000000000000 0.00000000000000 1.00000000000000 0.30000000000000 1.00000000000000 
8
1.00000000000000 0.00000000000000 0.50000000000000 0.00000000000000 0.00000000000000 1.00000000000000 0.50000000000000 1.00000000000000 
8
1.00000000000000 0.00000000000000 0.50000000000000 0.00000000000000 0.00000000000000 1.00000000000000 0.50000000000000 1.00000000000000 
8
1.00000000000000 0.00000000000000 0.50000000000000 0.00000000000000 0.00000000000000 1.00000000000000 0.50000000000000 1.00000000000000 
8
1.00000000000000 0.00000000000000 0.50000000000000 0.00000000000000 0.00000000000000 1.00000000000000 0.50000000000000 1.00000000000000 
8
1.00000000000000 0.00000000000000 0.20000000000000 0.00000000000000 0.00000000000000 1.00000000000000 0.80000000000000 1.00000000000000 
8
1.00000000000000 0.00000000000000 0.50000000000000 0.00000000000000 0.00000000000000 1.00000000000000 0.50000000000000 1.00000000000000 
4
0.97000000000000 0.00000000000000 0.03000000000000 1.00000000000000 
8
1.00000000000000 0.20000000000000 0.50000000000000 0.10000000000000 0.00000000000000 0.80000000000000 0.50000000000000 0.90000000000000 
8
1.00000000000000 0.00000000000000 0.50000000000000 0.00000000000000 0.00000000000000 1.00000000000000 0.50000000000000 1.00000000000000 
8
1.00000000000000 0.00000000000000 0.50000000000000 0.00000000000000 0.00000000000000 1.00000000000000 0.50000000000000 1.00000000000000 
8
1.00000000000000 0.00000000000000 0.05000000000000 0.00000000000000 0.00000000000000 1.00000000000000 0.95000000000000 1.00000000000000 
8
1.00000000000000 0.00000000000000 0.50000000000000 0.00000000000000 0.00000000000000 1.00000000000000 0.50000000000000 1.00000000000000 
8
1.00000000000000 0.00000000000000 0.10000000000000 0.00000000000000 0.00000000000000 1.00000000000000 0.90000000000000 1.00000000000000 
8
1.00000000000000 0.00000000000000 0.50000000000000 0.00000000000000 0.00000000000000 1.00000000000000 0.50000000000000 1.00000000000000 
8
1.00000000000000 0.00000000000000 0.01000000000000 0.00000000000000 0.00000000000000 1.00000000000000 0.99000000000000 1.00000000000000 
8
1.00000000000000 0.00000000000000 0.50000000000000 0.00000000000000 0.00000000000000 1.00000000000000 0.50000000000000 1.00000000000000 
8
1.00000000000000 0.00000000000000 0.10000000000000 0.00000000000000 0.00000000000000 1.00000000000000 0.90000000000000 1.00000000000000 
8
1.00000000000000 0.00000000000000 0.09000000000000 0.00000000000000 0.00000000000000 1.00000000000000 0.91000000000000 1.00000000000000 
8
1.00000000000000 0.00000000000000 0.50000000000000 0.00000000000000 0.00000000000000 1.00000000000000 0.50000000000000 1.00000000000000 
8
1.00000000000000 0.00000000000000 0.50000000000000 0.00000000000000 0.00000000000000 1.00000000000000 0.50000000000000 1.00000000000000 
8
1.00000000000000 0.00000000000000 0.50000000000000 0.00000000000000 0.00000000000000 1.00000000000000 0.50000000000000 1.00000000000000 
8
1.00000000000000 0.00000000000000 0.50000000000000 0.00000000000000 0.00000000000000 1.00000000000000 0.50000000000000 1.00000000000000 
8
1.00000000000000 0.00000000000000 0.20000000000000 0.00000000000000 0.00000000000000 1.00000000000000 0.80000000000000 1.00000000000000 
8
1.00000000000000 0.00000000000000 0.05000000000000 0.00000000000000 0.00000000000000 1.00000000000000 0.95000000000000 1.00000000000000 
8
1.00000000000000 0.00000000000000 0.50000000000000 0.00000000000000 0.00000000000000 1.00000000000000 0.50000000000000 1.00000000000000 
8
1.00000000000000 0.00000000000000 0.50000000000000 0.00000000000000 0.00000000000000 1.00000000000000 0.50000000000000 1.00000000000000 
8
1.00000000000000 0.00000000000000 0.05000000000000 0.00000000000000 0.00000000000000 1.00000000000000 0.95000000000000 1.00000000000000 
8
1.00000000000000 0.00000000000000 0.50000000000000 0.00000000000000 0.00000000000000 1.00000000000000 0.50000000000000 1.00000000000000 
8
1.00000000000000 0.00000000000000 0.50000000000000 0.00000000000000 0.00000000000000 1.00000000000000 0.50000000000000 1.00000000000000 
8
1.00000000000000 0.00000000000000 0.50000000000000 0.00000000000000 0.00000000000000 1.00000000000000 0.50000000000000 1.00000000000000 
8
1.00000000000000 0.00000000000000 0.10000000000000 0.00000000000000 0.00000000000000 1.00000000000000 0.90000000000000 1.00000000000000 
4
0.97000000000000 0.00000000000000 0.03000000000000 1.00000000000000 
2
0.99950000000000 0.00050000000000 
2
0.99997709000000 0.00002291000000 
2
0.99990000000000 0.00010000000000 
2
0.99999900000000 0.00000100000000 
2
0.99910000000000 0.00090000000000 
2
0.99975000000000 0.00025000000000 
2
0.99990000000000 0.00010000000000 
2
0.99999980000000 0.00000020000000 
2
0.99978400000000 0.00021600000000 
2
0.99989000000000 0.00011000000000 
2
0.99990000000000 0.00010000000000 
2
0.99990000000000 0.00010000000000 
2
0.99990000000000 0.00010000000000 
2
0.99990000000000 0.00010000000000 
2
0.99999938000000 0.00000062000000 
2
0.99990000000000 0.00010000000000 
2
0.99999988000000 0.00000012000000 
2
0.99900000000000 0.00100000000000 
2
0.99960000000000 0.00040000000000 
2
0.99850000000000 0.00150000000000 
2
0.99999718000000 0.00000282000000 
2
0.99990000000000 0.00010000000000 
2
0.99999000000000 0.00001000000000 
2
0.99950000000000 0.00050000000000 
2
0.99999800000000 0.00000200000000 
2
0.99990000000000 0.00010000000000 
2
0.99999600000000 0.00000400000000 
2
0.99999984000000 0.00000016000000 
2
0.99940000000000 0.00060000000000 
2
0.99996000000000 0.00004000000000 
2
0.99999500000000 0.00000500000000 
2
0.99990668000000 0.00009332000000 
2
0.99990000000000 0.00010000000000 
2
0.99940000000000 0.00060000000000 
2
0.99982000000000 0.00018000000000 
2
0.99960000000000 0.00040000000000 
2
0.99989000000000 0.00011000000000 
2
0.99985000000000 0.00015000000000 
2
0.99996880000000 0.00003120000000 
2
0.99990000000000 0.00010000000000 
2
0.99990000000000 0.00010000000000 
2
0.99999200000000 0.00000800000000 
2
0.99950000000000 0.00050000000000 
2
0.99990000000000 0.00010000000000 
2
0.99995000000000 0.00005000000000 
2
0.99990000000000 0.00010000000000 
2
0.99910000000000 0.00090000000000 
2
0.99992000000000 0.00008000000000 
2
0.99990000000000 0.00010000000000 
2
0.99999000000000 0.00001000000000 
2
0.99990000000000 0.00010000000000 
2
0.99998000000000 0.00002000000000 
2
0.99991000000000 0.00009000000000 
2
0.99999990000000 0.00000010000000 
2
0.99950000000000 0.00050000000000 
2
0.99960000000000 0.00040000000000 
2
0.99997300000000 0.00002700000000 
2
0.99991000000000 0.00009000000000 
2
0.99990000000000 0.00010000000000 
2
0.99990000000000 0.00010000000000 
2
0.99991000000000 0.00009000000000 
2
0.99900000000000 0.00100000000000 
2
0.99999990000000 0.00000010000000 
2
0.99980000000000 0.00020000000000 
2
0.99980000000000 0.00020000000000 
2
0.99900000000000 0.00100000000000 
2
0.99990000000000 0.00010000000000 
2
0.99790000000000 0.00210000000000 
2
0.99980000000000 0.00020000000000 
2
0.99950000000000 0.00050000000000 
2
0.99970000000000 0.00030000000000 
2
0.99922000000000 0.00078000000000 
2
0.99980000000000 0.00020000000000 
2
0.99990000000000 0.00010000000000 
2
0.99993000000000 0.00007000000000 
2
0.99990000000000 0.00010000000000 
2
0.99990000000000 0.00010000000000 
2
0.99910000000000 0.00090000000000 
2
0.99950000000000 0.00050000000000 
2
0.99990000000000 0.00010000000000 
2
0.99990000000000 0.00010000000000 
2
0.99995000000000 0.00005000000000 
2
0.99990000000000 0.00010000000000 
2
0.99990000000000 0.00010000000000 
2
0.99980000000000 0.00020000000000 
2
0.99990000000000 0.00010000000000 
2
0.99960000000000 0.00040000000000 
2
0.99991000000000 0.00009000000000 
2
0.99950000000000 0.00050000000000 
2
0.99999990000000 0.00000010000000 
2
0.99960000000000 0.00040000000000 
2
0.99950000000000 0.00050000000000 
2
0.99999900000000 0.00000100000000 
2
0.99940000000000 0.00060000000000 
2
0.99900000000000 0.00100000000000 
2
0.99990000000000 0.00010000000000 
